(set-option :produce-models true)
(set-option :produce-unsat-cores true)
(set-option :produce-interpolants true)
(set-option :interpolant-check-mode true)
(set-option :proof-transformation LU)
(set-logic ALL)
(set-info :source |SMT script generated on 2024-03-30T23:50:53+01:00 by Ultimate (https://ultimate.informatik.uni-freiburg.de/)|)
(set-info :smt-lib-version 2.5)
(set-info :category "industrial")
(set-info :ultimate-id conda.c_AllErrorsAtOnce_Iteration10)
(declare-fun |c_old(~N~0)| () Int)
(declare-fun |c_old(~N~0)_primed| () Int)
(declare-fun c_~N~0 () Int)
(declare-fun c_~N~0_primed () Int)
(declare-fun |c_old(#valid)| () (Array Int Int))
(declare-fun |c_old(#valid)_primed| () (Array Int Int))
(declare-fun |c_#valid| () (Array Int Int))
(declare-fun |c_#valid_primed| () (Array Int Int))
(declare-fun |c_old(#length)| () (Array Int Int))
(declare-fun |c_old(#length)_primed| () (Array Int Int))
(declare-fun |c_#length| () (Array Int Int))
(declare-fun |c_#length_primed| () (Array Int Int))
(declare-fun |c_old(#memory_int#0)| () (Array Int (Array Int Int)))
(declare-fun |c_old(#memory_int#0)_primed| () (Array Int (Array Int Int)))
(declare-fun |c_#memory_int#0| () (Array Int (Array Int Int)))
(declare-fun |c_#memory_int#0_primed| () (Array Int (Array Int Int)))
(declare-fun |c_old(#memory_int#1)| () (Array Int (Array Int Int)))
(declare-fun |c_old(#memory_int#1)_primed| () (Array Int (Array Int Int)))
(declare-fun |c_#memory_int#1| () (Array Int (Array Int Int)))
(declare-fun |c_#memory_int#1_primed| () (Array Int (Array Int Int)))
(declare-fun |c_old(#memory_int#2)| () (Array Int (Array Int Int)))
(declare-fun |c_old(#memory_int#2)_primed| () (Array Int (Array Int Int)))
(declare-fun |c_#memory_int#2| () (Array Int (Array Int Int)))
(declare-fun |c_#memory_int#2_primed| () (Array Int (Array Int Int)))
(declare-fun |c_old(#memory_int#3)| () (Array Int (Array Int Int)))
(declare-fun |c_old(#memory_int#3)_primed| () (Array Int (Array Int Int)))
(declare-fun |c_#memory_int#3| () (Array Int (Array Int Int)))
(declare-fun |c_#memory_int#3_primed| () (Array Int (Array Int Int)))
(declare-fun |c_old(#StackHeapBarrier)| () Int)
(declare-fun |c_old(#StackHeapBarrier)_primed| () Int)
(declare-fun |c_#StackHeapBarrier| () Int)
(declare-fun |c_#StackHeapBarrier_primed| () Int)
(declare-fun |c_#Ultimate.allocInit_~size| () Int)
(declare-fun |c_#Ultimate.allocInit_~size_primed| () Int)
(declare-fun |c_#Ultimate.allocInit_ptrBase| () Int)
(declare-fun |c_#Ultimate.allocInit_ptrBase_primed| () Int)
(declare-fun |c_write~init~int#3_#value| () Int)
(declare-fun |c_write~init~int#3_#value_primed| () Int)
(declare-fun |c_write~init~int#3_#ptr.base| () Int)
(declare-fun |c_write~init~int#3_#ptr.base_primed| () Int)
(declare-fun |c_write~init~int#3_#ptr.offset| () Int)
(declare-fun |c_write~init~int#3_#ptr.offset_primed| () Int)
(declare-fun |c_write~init~int#3_#sizeOfWrittenType| () Int)
(declare-fun |c_write~init~int#3_#sizeOfWrittenType_primed| () Int)
(declare-fun |c_read~int#3_#ptr.base| () Int)
(declare-fun |c_read~int#3_#ptr.base_primed| () Int)
(declare-fun |c_read~int#3_#ptr.offset| () Int)
(declare-fun |c_read~int#3_#ptr.offset_primed| () Int)
(declare-fun |c_read~int#3_#sizeOfReadType| () Int)
(declare-fun |c_read~int#3_#sizeOfReadType_primed| () Int)
(declare-fun |c_read~int#3_#value| () Int)
(declare-fun |c_read~int#3_#value_primed| () Int)
(declare-fun |c_read~int#2_#ptr.base| () Int)
(declare-fun |c_read~int#2_#ptr.base_primed| () Int)
(declare-fun |c_read~int#2_#ptr.offset| () Int)
(declare-fun |c_read~int#2_#ptr.offset_primed| () Int)
(declare-fun |c_read~int#2_#sizeOfReadType| () Int)
(declare-fun |c_read~int#2_#sizeOfReadType_primed| () Int)
(declare-fun |c_read~int#2_#value| () Int)
(declare-fun |c_read~int#2_#value_primed| () Int)
(declare-fun |c_read~int#1_#ptr.base| () Int)
(declare-fun |c_read~int#1_#ptr.base_primed| () Int)
(declare-fun |c_read~int#1_#ptr.offset| () Int)
(declare-fun |c_read~int#1_#ptr.offset_primed| () Int)
(declare-fun |c_read~int#1_#sizeOfReadType| () Int)
(declare-fun |c_read~int#1_#sizeOfReadType_primed| () Int)
(declare-fun |c_read~int#1_#value| () Int)
(declare-fun |c_read~int#1_#value_primed| () Int)
(declare-fun |c_read~int#0_#ptr.base| () Int)
(declare-fun |c_read~int#0_#ptr.base_primed| () Int)
(declare-fun |c_read~int#0_#ptr.offset| () Int)
(declare-fun |c_read~int#0_#ptr.offset_primed| () Int)
(declare-fun |c_read~int#0_#sizeOfReadType| () Int)
(declare-fun |c_read~int#0_#sizeOfReadType_primed| () Int)
(declare-fun |c_read~int#0_#value| () Int)
(declare-fun |c_read~int#0_#value_primed| () Int)
(declare-fun |c_main_#res| () Int)
(declare-fun |c_main_#res_primed| () Int)
(declare-fun |c_main_#t~nondet4| () Int)
(declare-fun |c_main_#t~nondet4_primed| () Int)
(declare-fun |c_main_#t~malloc5.base| () Int)
(declare-fun |c_main_#t~malloc5.base_primed| () Int)
(declare-fun |c_main_#t~malloc5.offset| () Int)
(declare-fun |c_main_#t~malloc5.offset_primed| () Int)
(declare-fun |c_main_#t~post6| () Int)
(declare-fun |c_main_#t~post6_primed| () Int)
(declare-fun |c_main_#t~mem7| () Int)
(declare-fun |c_main_#t~mem7_primed| () Int)
(declare-fun |c_main_#t~mem8| () Int)
(declare-fun |c_main_#t~mem8_primed| () Int)
(declare-fun |c_main_#t~mem9| () Int)
(declare-fun |c_main_#t~mem9_primed| () Int)
(declare-fun |c_main_#t~post10| () Int)
(declare-fun |c_main_#t~post10_primed| () Int)
(declare-fun |c_main_#t~mem11| () Int)
(declare-fun |c_main_#t~mem11_primed| () Int)
(declare-fun |c_main_#t~mem12| () Int)
(declare-fun |c_main_#t~mem12_primed| () Int)
(declare-fun |c_main_#t~post13| () Int)
(declare-fun |c_main_#t~post13_primed| () Int)
(declare-fun |c_main_#t~mem14| () Int)
(declare-fun |c_main_#t~mem14_primed| () Int)
(declare-fun c_main_~i~0 () Int)
(declare-fun c_main_~i~0_primed () Int)
(declare-fun |c_main_~#sum~0.base| () Int)
(declare-fun |c_main_~#sum~0.base_primed| () Int)
(declare-fun |c_main_~#sum~0.offset| () Int)
(declare-fun |c_main_~#sum~0.offset_primed| () Int)
(declare-fun c_main_~a~0.base () Int)
(declare-fun c_main_~a~0.base_primed () Int)
(declare-fun c_main_~a~0.offset () Int)
(declare-fun c_main_~a~0.offset_primed () Int)
(declare-fun |c_#Ultimate.allocOnStack_~size| () Int)
(declare-fun |c_#Ultimate.allocOnStack_~size_primed| () Int)
(declare-fun |c_#Ultimate.allocOnStack_#res.base| () Int)
(declare-fun |c_#Ultimate.allocOnStack_#res.base_primed| () Int)
(declare-fun |c_#Ultimate.allocOnStack_#res.offset| () Int)
(declare-fun |c_#Ultimate.allocOnStack_#res.offset_primed| () Int)
(declare-fun |c_write~int#0_#value| () Int)
(declare-fun |c_write~int#0_#value_primed| () Int)
(declare-fun |c_write~int#0_#ptr.base| () Int)
(declare-fun |c_write~int#0_#ptr.base_primed| () Int)
(declare-fun |c_write~int#0_#ptr.offset| () Int)
(declare-fun |c_write~int#0_#ptr.offset_primed| () Int)
(declare-fun |c_write~int#0_#sizeOfWrittenType| () Int)
(declare-fun |c_write~int#0_#sizeOfWrittenType_primed| () Int)
(declare-fun |c_write~int#1_#value| () Int)
(declare-fun |c_write~int#1_#value_primed| () Int)
(declare-fun |c_write~int#1_#ptr.base| () Int)
(declare-fun |c_write~int#1_#ptr.base_primed| () Int)
(declare-fun |c_write~int#1_#ptr.offset| () Int)
(declare-fun |c_write~int#1_#ptr.offset_primed| () Int)
(declare-fun |c_write~int#1_#sizeOfWrittenType| () Int)
(declare-fun |c_write~int#1_#sizeOfWrittenType_primed| () Int)
(declare-fun |c_write~int#2_#value| () Int)
(declare-fun |c_write~int#2_#value_primed| () Int)
(declare-fun |c_write~int#2_#ptr.base| () Int)
(declare-fun |c_write~int#2_#ptr.base_primed| () Int)
(declare-fun |c_write~int#2_#ptr.offset| () Int)
(declare-fun |c_write~int#2_#ptr.offset_primed| () Int)
(declare-fun |c_write~int#2_#sizeOfWrittenType| () Int)
(declare-fun |c_write~int#2_#sizeOfWrittenType_primed| () Int)
(declare-fun |c_write~init~int#2_#value| () Int)
(declare-fun |c_write~init~int#2_#value_primed| () Int)
(declare-fun |c_write~init~int#2_#ptr.base| () Int)
(declare-fun |c_write~init~int#2_#ptr.base_primed| () Int)
(declare-fun |c_write~init~int#2_#ptr.offset| () Int)
(declare-fun |c_write~init~int#2_#ptr.offset_primed| () Int)
(declare-fun |c_write~init~int#2_#sizeOfWrittenType| () Int)
(declare-fun |c_write~init~int#2_#sizeOfWrittenType_primed| () Int)
(declare-fun |c_write~init~int#1_#value| () Int)
(declare-fun |c_write~init~int#1_#value_primed| () Int)
(declare-fun |c_write~init~int#1_#ptr.base| () Int)
(declare-fun |c_write~init~int#1_#ptr.base_primed| () Int)
(declare-fun |c_write~init~int#1_#ptr.offset| () Int)
(declare-fun |c_write~init~int#1_#ptr.offset_primed| () Int)
(declare-fun |c_write~init~int#1_#sizeOfWrittenType| () Int)
(declare-fun |c_write~init~int#1_#sizeOfWrittenType_primed| () Int)
(declare-fun |c_write~init~int#0_#value| () Int)
(declare-fun |c_write~init~int#0_#value_primed| () Int)
(declare-fun |c_write~init~int#0_#ptr.base| () Int)
(declare-fun |c_write~init~int#0_#ptr.base_primed| () Int)
(declare-fun |c_write~init~int#0_#ptr.offset| () Int)
(declare-fun |c_write~init~int#0_#ptr.offset_primed| () Int)
(declare-fun |c_write~init~int#0_#sizeOfWrittenType| () Int)
(declare-fun |c_write~init~int#0_#sizeOfWrittenType_primed| () Int)
(declare-fun |c_malloc_#in~size| () Int)
(declare-fun |c_malloc_#in~size_primed| () Int)
(declare-fun |c_malloc_#res.base| () Int)
(declare-fun |c_malloc_#res.base_primed| () Int)
(declare-fun |c_malloc_#res.offset| () Int)
(declare-fun |c_malloc_#res.offset_primed| () Int)
(declare-fun |c_assume_abort_if_not_#in~cond| () Int)
(declare-fun |c_assume_abort_if_not_#in~cond_primed| () Int)
(declare-fun c_assume_abort_if_not_~cond () Int)
(declare-fun c_assume_abort_if_not_~cond_primed () Int)
(declare-fun |c_write~int#3_#value| () Int)
(declare-fun |c_write~int#3_#value_primed| () Int)
(declare-fun |c_write~int#3_#ptr.base| () Int)
(declare-fun |c_write~int#3_#ptr.base_primed| () Int)
(declare-fun |c_write~int#3_#ptr.offset| () Int)
(declare-fun |c_write~int#3_#ptr.offset_primed| () Int)
(declare-fun |c_write~int#3_#sizeOfWrittenType| () Int)
(declare-fun |c_write~int#3_#sizeOfWrittenType_primed| () Int)
(declare-fun |c_#Ultimate.allocOnHeap_~size| () Int)
(declare-fun |c_#Ultimate.allocOnHeap_~size_primed| () Int)
(declare-fun |c_#Ultimate.allocOnHeap_#res.base| () Int)
(declare-fun |c_#Ultimate.allocOnHeap_#res.base_primed| () Int)
(declare-fun |c_#Ultimate.allocOnHeap_#res.offset| () Int)
(declare-fun |c_#Ultimate.allocOnHeap_#res.offset_primed| () Int)
(declare-fun |c___VERIFIER_nondet_int_#res| () Int)
(declare-fun |c___VERIFIER_nondet_int_#res_primed| () Int)
(declare-fun |c_ULTIMATE.start_#t~ret15| () Int)
(declare-fun |c_ULTIMATE.start_#t~ret15_primed| () Int)
(declare-fun |c___VERIFIER_assert_#in~cond| () Int)
(declare-fun |c___VERIFIER_assert_#in~cond_primed| () Int)
(declare-fun c___VERIFIER_assert_~cond () Int)
(declare-fun c___VERIFIER_assert_~cond_primed () Int)
(declare-fun |c___assert_fail_#in~0.base| () Int)
(declare-fun |c___assert_fail_#in~0.base_primed| () Int)
(declare-fun |c___assert_fail_#in~0.offset| () Int)
(declare-fun |c___assert_fail_#in~0.offset_primed| () Int)
(declare-fun |c___assert_fail_#in~1.base| () Int)
(declare-fun |c___assert_fail_#in~1.base_primed| () Int)
(declare-fun |c___assert_fail_#in~1.offset| () Int)
(declare-fun |c___assert_fail_#in~1.offset_primed| () Int)
(declare-fun |c___assert_fail_#in~2| () Int)
(declare-fun |c___assert_fail_#in~2_primed| () Int)
(declare-fun |c___assert_fail_#in~3.base| () Int)
(declare-fun |c___assert_fail_#in~3.base_primed| () Int)
(declare-fun |c___assert_fail_#in~3.offset| () Int)
(declare-fun |c___assert_fail_#in~3.offset_primed| () Int)
(declare-fun c_ULTIMATE.dealloc_~addr.base () Int)
(declare-fun c_ULTIMATE.dealloc_~addr.base_primed () Int)
(declare-fun c_ULTIMATE.dealloc_~addr.offset () Int)
(declare-fun c_ULTIMATE.dealloc_~addr.offset_primed () Int)
(declare-fun |c_aux_v_ULTIMATE.start_#t~ret15_3| () Int)
(declare-fun c_aux_v_ArrVal_1 () Int)
(declare-fun c_aux_v_ArrVal_4 () Int)
(declare-fun c_aux_v_ArrVal_2 () Int)
(declare-fun c_aux_v_ArrVal_3 () Int)
(declare-fun c_aux_v_ArrVal_6 () Int)
(declare-fun c_aux_v_ArrVal_5 () (Array Int Int))
(declare-fun c_aux_v_ArrVal_11 () (Array Int Int))
(declare-fun c_aux_v_ArrVal_8 () Int)
(declare-fun c_aux_v_ArrVal_9 () Int)
(declare-fun c_aux_v_ArrVal_10 () Int)
(declare-fun c_aux_v_ArrVal_7 () Int)
(declare-fun c_aux_v_ArrVal_12 () Int)
(declare-fun c_aux_v_ArrVal_18 () Int)
(declare-fun c_aux_v_ArrVal_13 () Int)
(declare-fun c_aux_v_ArrVal_14 () Int)
(declare-fun c_aux_v_ArrVal_15 () Int)
(declare-fun c_aux_v_ArrVal_16 () Int)
(declare-fun c_aux_v_ArrVal_17 () (Array Int Int))
(declare-fun c_aux_v_ArrVal_20 () Int)
(declare-fun c_aux_v_ArrVal_19 () (Array Int Int))
(declare-fun c_aux_v_ArrVal_21 () (Array Int Int))
(declare-fun c_aux_v_ArrVal_22 () Int)
(declare-fun c_aux_v_ArrVal_24 () Int)
(declare-fun c_aux_v_ArrVal_23 () (Array Int Int))
(declare-fun c_aux_v_ArrVal_28 () Int)
(declare-fun c_aux_v_ArrVal_25 () Int)
(declare-fun c_aux_v_ArrVal_26 () Int)
(declare-fun c_aux_v_ArrVal_27 () Int)
(declare-fun c_aux_v_ArrVal_29 () (Array Int Int))
(declare-fun c_aux_v_ArrVal_30 () Int)
(declare-fun c_aux_v_ArrVal_31 () (Array Int Int))
(declare-fun c_aux_v_ArrVal_32 () Int)
(declare-fun c_aux_v_ArrVal_33 () (Array Int Int))
(declare-fun c_aux_v_ArrVal_34 () Int)
(declare-fun c_aux_v_ArrVal_36 () Int)
(declare-fun c_aux_v_ArrVal_35 () (Array Int Int))
(declare-fun c_aux_v_ArrVal_39 () Int)
(declare-fun c_aux_v_ArrVal_41 () (Array Int Int))
(declare-fun c_aux_v_ArrVal_37 () Int)
(declare-fun c_aux_v_ArrVal_38 () Int)
(declare-fun c_aux_v_ArrVal_42 () Int)
(declare-fun c_aux_v_ArrVal_40 () Int)
(declare-fun c_aux_v_ArrVal_43 () (Array Int Int))
(declare-fun c_aux_v_ArrVal_44 () Int)
(declare-fun c_aux_v_ArrVal_46 () Int)
(declare-fun c_aux_v_ArrVal_45 () (Array Int Int))
(declare-fun c_aux_v_ArrVal_48 () Int)
(declare-fun c_aux_v_ArrVal_47 () (Array Int Int))
(declare-fun c_aux_v_ArrVal_49 () (Array Int Int))
(declare-fun c_aux_v_ArrVal_50 () Int)
(declare-fun c_aux_v_ArrVal_55 () (Array Int Int))
(declare-fun c_aux_v_ArrVal_53 () Int)
(declare-fun c_aux_v_ArrVal_54 () Int)
(declare-fun c_aux_v_ArrVal_56 () Int)
(declare-fun c_aux_v_ArrVal_51 () Int)
(declare-fun c_aux_v_ArrVal_52 () Int)
(declare-fun c_aux_v_ArrVal_58 () Int)
(declare-fun c_aux_v_ArrVal_57 () (Array Int Int))
(declare-fun c_aux_v_ArrVal_59 () (Array Int Int))
(declare-fun c_aux_v_ArrVal_60 () Int)
(declare-fun c_aux_v_ArrVal_61 () (Array Int Int))
(declare-fun c_aux_v_ArrVal_62 () Int)
(declare-fun c_aux_v_ArrVal_63 () (Array Int Int))
(declare-fun c_aux_v_ArrVal_64 () Int)
(declare-fun c_aux_v_ArrVal_70 () Int)
(declare-fun c_aux_v_ArrVal_68 () Int)
(declare-fun c_aux_v_ArrVal_65 () Int)
(declare-fun c_aux_v_ArrVal_66 () Int)
(declare-fun c_aux_v_ArrVal_67 () Int)
(declare-fun c_aux_v_ArrVal_69 () (Array Int Int))
(declare-fun c_aux_v_ArrVal_71 () (Array Int Int))
(declare-fun c_aux_v_ArrVal_72 () Int)
(declare-fun c_aux_v_ArrVal_73 () (Array Int Int))
(declare-fun c_aux_v_ArrVal_74 () Int)
(declare-fun c_aux_v_ArrVal_75 () (Array Int Int))
(declare-fun c_aux_v_ArrVal_76 () Int)
(declare-fun c_aux_v_ArrVal_77 () (Array Int Int))
(declare-fun c_aux_v_ArrVal_78 () Int)
(declare-fun c_aux_v_ArrVal_80 () Int)
(declare-fun c_aux_v_ArrVal_79 () (Array Int Int))
(declare-fun c_aux_v_ArrVal_82 () Int)
(declare-fun c_aux_v_ArrVal_81 () (Array Int Int))
(declare-fun c_aux_v_ArrVal_87 () (Array Int Int))
(declare-fun c_aux_v_ArrVal_86 () Int)
(declare-fun c_aux_v_ArrVal_88 () Int)
(declare-fun c_aux_v_ArrVal_83 () Int)
(declare-fun c_aux_v_ArrVal_84 () Int)
(declare-fun c_aux_v_ArrVal_85 () Int)
(declare-fun c_aux_v_ArrVal_90 () Int)
(declare-fun c_aux_v_ArrVal_89 () (Array Int Int))
(declare-fun c_aux_v_ArrVal_92 () Int)
(declare-fun c_aux_v_ArrVal_91 () (Array Int Int))
(declare-fun c_aux_v_ArrVal_93 () (Array Int Int))
(declare-fun c_aux_v_ArrVal_94 () Int)
(declare-fun c_aux_v_ArrVal_95 () (Array Int Int))
(declare-fun c_aux_v_ArrVal_96 () Int)
(declare-fun c_aux_v_ArrVal_97 () (Array Int Int))
(declare-fun c_aux_v_ArrVal_98 () Int)
(declare-fun c_aux_v_ArrVal_99 () (Array Int Int))
(declare-fun c_aux_v_ArrVal_100 () Int)
(declare-fun c_aux_v_ArrVal_104 () Int)
(declare-fun c_aux_v_ArrVal_103 () Int)
(declare-fun c_aux_v_ArrVal_105 () (Array Int Int))
(declare-fun c_aux_v_ArrVal_102 () Int)
(declare-fun c_aux_v_ArrVal_101 () Int)
(declare-fun c_aux_v_ArrVal_106 () Int)
(declare-fun c_aux_v_ArrVal_107 () (Array Int Int))
(declare-fun c_aux_v_ArrVal_108 () Int)
(declare-fun c_aux_v_ArrVal_109 () (Array Int Int))
(declare-fun c_aux_v_ArrVal_110 () Int)
(declare-fun c_aux_v_ArrVal_112 () Int)
(declare-fun c_aux_v_ArrVal_111 () (Array Int Int))
(declare-fun c_aux_v_ArrVal_114 () Int)
(declare-fun c_aux_v_ArrVal_113 () (Array Int Int))
(declare-fun c_aux_v_ArrVal_115 () (Array Int Int))
(declare-fun c_aux_v_ArrVal_116 () Int)
(declare-fun c_aux_v_ArrVal_117 () (Array Int Int))
(declare-fun c_aux_v_ArrVal_118 () Int)
(declare-fun c_aux_v_ArrVal_119 () (Array Int Int))
(declare-fun c_aux_v_ArrVal_120 () Int)
(echo "starting trace check")
(push 1)
(declare-fun |#memory_int#0_-1| () (Array Int (Array Int Int)))
(declare-fun |#valid_-1| () (Array Int Int))
(declare-fun |#length_-1| () (Array Int Int))
(declare-fun ~N~0_-1 () Int)
(declare-fun |#memory_int#2_-1| () (Array Int (Array Int Int)))
(declare-fun |#memory_int#1_-1| () (Array Int (Array Int Int)))
(declare-fun |#memory_int#3_-1| () (Array Int (Array Int Int)))
(declare-fun |old(#memory_int#0)_-1| () (Array Int (Array Int Int)))
(declare-fun |old(#valid)_-1| () (Array Int Int))
(declare-fun |old(#length)_-1| () (Array Int Int))
(declare-fun |old(~N~0)_-1| () Int)
(declare-fun |old(#memory_int#2)_-1| () (Array Int (Array Int Int)))
(declare-fun |old(#memory_int#1)_-1| () (Array Int (Array Int Int)))
(declare-fun |old(#memory_int#3)_-1| () (Array Int (Array Int Int)))
(declare-fun |old(~N~0)_0| () Int)
(declare-fun ~N~0_0 () Int)
(declare-fun |#StackHeapBarrier_-1| () Int)
(declare-fun ~N~0_1 () Int)
(declare-fun |old(#valid)_3| () (Array Int Int))
(declare-fun |old(#length)_3| () (Array Int Int))
(declare-fun |old(~N~0)_3| () Int)
(declare-fun |old(#memory_int#1)_3| () (Array Int (Array Int Int)))
(declare-fun |old(#memory_int#3)_3| () (Array Int (Array Int Int)))
(declare-fun |#valid_3| () (Array Int Int))
(declare-fun |#length_3| () (Array Int Int))
(declare-fun ~N~0_3 () Int)
(declare-fun |#memory_int#1_3| () (Array Int (Array Int Int)))
(declare-fun |#memory_int#3_3| () (Array Int (Array Int Int)))
(declare-fun |main_#t~nondet4_4| () Int)
(declare-fun ~N~0_4 () Int)
(declare-fun |assume_abort_if_not_#in~cond_6| () Int)
(declare-fun assume_abort_if_not_~cond_7 () Int)
(declare-fun assume_abort_if_not_~cond_8 () Int)
(declare-fun |main_#t~malloc5.offset_11| () Int)
(declare-fun |main_~#sum~0.base_11| () Int)
(declare-fun |#valid_11| () (Array Int Int))
(declare-fun main_~a~0.base_11 () Int)
(declare-fun main_~i~0_11 () Int)
(declare-fun |#length_11| () (Array Int Int))
(declare-fun |main_~#sum~0.offset_11| () Int)
(declare-fun |main_#t~malloc5.base_11| () Int)
(declare-fun |#memory_int#1_11| () (Array Int (Array Int Int)))
(declare-fun main_~a~0.offset_11 () Int)
(declare-fun v_ArrVal_126_fresh_1 () Int)
(declare-fun v_ArrVal_124_fresh_1 () Int)
(declare-fun v_ArrVal_123_fresh_1 () Int)
(declare-fun v_ArrVal_122_fresh_1 () Int)
(declare-fun v_ArrVal_121_fresh_1 () Int)
(declare-fun v_ArrVal_125_fresh_1 () (Array Int Int))
(declare-fun main_~i~0_12 () Int)
(declare-fun |main_#t~post6_12| () Int)
(declare-fun |#memory_int#3_12| () (Array Int (Array Int Int)))
(declare-fun v_ArrVal_127_fresh_1 () (Array Int Int))
(declare-fun v_ArrVal_128_fresh_1 () Int)
(declare-fun main_~i~0_13 () Int)
(declare-fun |main_#t~post6_13| () Int)
(declare-fun |#memory_int#3_13| () (Array Int (Array Int Int)))
(declare-fun v_ArrVal_129_fresh_1 () (Array Int Int))
(declare-fun v_ArrVal_130_fresh_1 () Int)
(declare-fun main_~i~0_14 () Int)
(declare-fun main_~i~0_15 () Int)
(declare-fun |main_#t~mem7_16| () Int)
(declare-fun |main_#t~mem7_17| () Int)
(declare-fun |main_#t~mem8_17| () Int)
(declare-fun |#memory_int#3_17| () (Array Int (Array Int Int)))
(declare-fun v_ArrVal_132_fresh_1 () Int)
(declare-fun v_ArrVal_131_fresh_1 () (Array Int Int))
(declare-fun |main_#t~post10_18| () Int)
(declare-fun main_~i~0_18 () Int)
(declare-fun |main_#t~mem7_19| () Int)
(declare-fun |main_#t~mem7_20| () Int)
(declare-fun |main_#t~mem8_20| () Int)
(declare-fun |#memory_int#3_20| () (Array Int (Array Int Int)))
(declare-fun v_ArrVal_134_fresh_1 () Int)
(declare-fun v_ArrVal_133_fresh_1 () (Array Int Int))
(declare-fun |main_#t~post10_21| () Int)
(declare-fun main_~i~0_21 () Int)
(declare-fun main_~i~0_22 () Int)
(declare-fun main_~i~0_23 () Int)
(declare-fun |main_#t~mem12_24| () Int)
(declare-fun |main_#t~mem11_24| () Int)
(declare-fun main_~i~0_24 () Int)
(declare-fun |#memory_int#1_24| () (Array Int (Array Int Int)))
(declare-fun |main_#t~post13_24| () Int)
(declare-fun v_ArrVal_136_fresh_1 () Int)
(declare-fun v_ArrVal_135_fresh_1 () (Array Int Int))
(declare-fun |main_#t~mem12_25| () Int)
(declare-fun |main_#t~mem11_25| () Int)
(declare-fun main_~i~0_25 () Int)
(declare-fun |#memory_int#1_25| () (Array Int (Array Int Int)))
(declare-fun |main_#t~post13_25| () Int)
(declare-fun v_ArrVal_137_fresh_1 () (Array Int Int))
(declare-fun v_ArrVal_138_fresh_1 () Int)
(declare-fun |main_#t~mem12_26| () Int)
(declare-fun |main_#t~mem11_26| () Int)
(declare-fun main_~i~0_26 () Int)
(declare-fun |#memory_int#1_26| () (Array Int (Array Int Int)))
(declare-fun |main_#t~post13_26| () Int)
(declare-fun v_ArrVal_139_fresh_1 () (Array Int Int))
(declare-fun v_ArrVal_140_fresh_1 () Int)
(declare-fun main_~i~0_27 () Int)
(declare-fun |main_#t~mem14_28| () Int)
(declare-fun |main_~#sum~0.offset_28| () Int)
(declare-fun |__VERIFIER_assert_#in~cond_29| () Int)
(declare-fun |main_#t~mem14_29| () Int)
(declare-fun __VERIFIER_assert_~cond_30 () Int)
(declare-fun __VERIFIER_assert_~cond_31 () Int)
(assert (! true :named ssa_precond))
(assert (! (not false) :named ssa_postcond))
(assert (! (= |old(~N~0)_0| ~N~0_0) :named ssa_0_GlobVarAssigCall))
(assert (! true :named ssa_0_LocVarAssigCall))
(assert (! (= ~N~0_-1 |old(~N~0)_0|) :named ssa_0_OldVarAssigCall))
(assert (! (and (= (select |#valid_-1| 2) 1) (= 46 (select (select |#memory_int#2_-1| 2) 5)) (= (select (select |#memory_int#2_-1| 2) 4) 97) (= (select (select |#memory_int#2_-1| 2) 7) 0) (< 0 |#StackHeapBarrier_-1|) (= (select (select |#memory_int#2_-1| 2) 3) 100) (= (select |#length_-1| 2) 8) (= (select |#valid_-1| 0) 0) (= (select |#valid_-1| 1) 1) (= 0 ~N~0_1) (= 110 (select (select |#memory_int#2_-1| 2) 2)) (= (select |#valid_-1| 3) 1) (= 2 (select |#length_-1| 1)) (= (select (select |#memory_int#2_-1| 2) 6) 99) (= 111 (select (select |#memory_int#2_-1| 2) 1)) (= (select (select |#memory_int#0_-1| 1) 1) 0) (= (select (select |#memory_int#2_-1| 2) 0) 99) (= (select (select |#memory_int#0_-1| 1) 0) 48) (= (select |#length_-1| 3) 12)) :named ssa_1))
(assert (! true :named ssa_2_return))
(assert (! (and (= |old(~N~0)_3| ~N~0_3) (= |old(#valid)_3| |#valid_3|) (= |old(#memory_int#3)_3| |#memory_int#3_3|) (= |#length_3| |old(#length)_3|) (= |old(#memory_int#1)_3| |#memory_int#1_3|)) :named ssa_3_GlobVarAssigCall))
(assert (! true :named ssa_3_LocVarAssigCall))
(assert (! (and (= ~N~0_1 |old(~N~0)_3|) (= |old(#length)_3| |#length_-1|) (= |#valid_-1| |old(#valid)_3|) (= |old(#memory_int#3)_3| |#memory_int#3_-1|) (= |old(#memory_int#1)_3| |#memory_int#1_-1|)) :named ssa_3_OldVarAssigCall))
(assert (! (and (<= ~N~0_4 2147483647) (<= 0 (+ ~N~0_4 2147483648))) :named ssa_4))
(assert (! (< 0 ~N~0_4) :named ssa_5))
(assert (! true :named ssa_6_GlobVarAssigCall))
(assert (! (= |assume_abort_if_not_#in~cond_6| (ite (<= (mod ~N~0_4 4294967296) 536870911) 1 0)) :named ssa_6_LocVarAssigCall))
(assert (! true :named ssa_6_OldVarAssigCall))
(assert (! (= |assume_abort_if_not_#in~cond_6| assume_abort_if_not_~cond_7) :named ssa_7))
(assert (! (not (= assume_abort_if_not_~cond_7 0)) :named ssa_8))
(assert (! true :named ssa_9))
(assert (! true :named ssa_10_return))
(assert (! (and (= main_~i~0_11 0) (= v_ArrVal_125_fresh_1 (store (select |#memory_int#1_3| |main_~#sum~0.base_11|) |main_~#sum~0.offset_11| v_ArrVal_123_fresh_1)) (< main_~a~0.base_11 |#StackHeapBarrier_-1|) (= |main_~#sum~0.offset_11| 0) (= v_ArrVal_122_fresh_1 1) (= (store (store |#length_3| |main_~#sum~0.base_11| v_ArrVal_126_fresh_1) main_~a~0.base_11 v_ArrVal_121_fresh_1) |#length_11|) (< |#StackHeapBarrier_-1| |main_~#sum~0.base_11|) (= v_ArrVal_124_fresh_1 1) (= |#valid_11| (store (store |#valid_3| |main_~#sum~0.base_11| v_ArrVal_124_fresh_1) main_~a~0.base_11 v_ArrVal_122_fresh_1)) (not (= |main_~#sum~0.base_11| 0)) (= v_ArrVal_126_fresh_1 8) (= (select |#valid_3| |main_~#sum~0.base_11|) 0) (= main_~a~0.offset_11 0) (not (= main_~a~0.base_11 0)) (= v_ArrVal_123_fresh_1 0) (= (select (store |#valid_3| |main_~#sum~0.base_11| v_ArrVal_124_fresh_1) main_~a~0.base_11) 0) (= (store |#memory_int#1_3| |main_~#sum~0.base_11| v_ArrVal_125_fresh_1) |#memory_int#1_11|) (= v_ArrVal_121_fresh_1 (* (mod ~N~0_4 1073741824) 4))) :named ssa_11))
(assert (! (and (= v_ArrVal_128_fresh_1 1) (= main_~i~0_12 (+ main_~i~0_11 1)) (< main_~i~0_11 ~N~0_4) (= |#memory_int#3_12| (store |#memory_int#3_3| main_~a~0.base_11 v_ArrVal_127_fresh_1)) (= v_ArrVal_127_fresh_1 (store (select |#memory_int#3_3| main_~a~0.base_11) (+ (* main_~i~0_11 4) main_~a~0.offset_11) 1))) :named ssa_12))
(assert (! (and (= v_ArrVal_130_fresh_1 1) (= main_~i~0_13 (+ main_~i~0_12 1)) (< main_~i~0_12 ~N~0_4) (= (store |#memory_int#3_12| main_~a~0.base_11 v_ArrVal_129_fresh_1) |#memory_int#3_13|) (= v_ArrVal_129_fresh_1 (store (select |#memory_int#3_12| main_~a~0.base_11) (+ (* main_~i~0_12 4) main_~a~0.offset_11) 1))) :named ssa_13))
(assert (! (<= ~N~0_4 main_~i~0_13) :named ssa_14))
(assert (! (= main_~i~0_15 0) :named ssa_15))
(assert (! (and (< main_~i~0_15 ~N~0_4) (= (select (select |#memory_int#3_13| main_~a~0.base_11) (+ (* main_~i~0_15 4) main_~a~0.offset_11)) |main_#t~mem7_16|)) :named ssa_16))
(assert (! (and (= |main_#t~mem7_16| 1) (= v_ArrVal_131_fresh_1 (store (select |#memory_int#3_13| main_~a~0.base_11) (+ main_~a~0.offset_11 (* main_~i~0_15 4)) (+ (select (select |#memory_int#3_13| main_~a~0.base_11) (+ main_~a~0.offset_11 (* main_~i~0_15 4))) 1))) (= v_ArrVal_132_fresh_1 (+ (select (select |#memory_int#3_13| main_~a~0.base_11) (+ main_~a~0.offset_11 (* main_~i~0_15 4))) 1)) (= (store |#memory_int#3_13| main_~a~0.base_11 v_ArrVal_131_fresh_1) |#memory_int#3_17|)) :named ssa_17))
(assert (! (= main_~i~0_18 (+ main_~i~0_15 1)) :named ssa_18))
(assert (! (and (< main_~i~0_18 ~N~0_4) (= (select (select |#memory_int#3_17| main_~a~0.base_11) (+ (* main_~i~0_18 4) main_~a~0.offset_11)) |main_#t~mem7_19|)) :named ssa_19))
(assert (! (and (= v_ArrVal_133_fresh_1 (store (select |#memory_int#3_17| main_~a~0.base_11) (+ main_~a~0.offset_11 (* main_~i~0_18 4)) (+ (select (select |#memory_int#3_17| main_~a~0.base_11) (+ main_~a~0.offset_11 (* main_~i~0_18 4))) 1))) (= |main_#t~mem7_19| 1) (= (store |#memory_int#3_17| main_~a~0.base_11 v_ArrVal_133_fresh_1) |#memory_int#3_20|) (= v_ArrVal_134_fresh_1 (+ (select (select |#memory_int#3_17| main_~a~0.base_11) (+ main_~a~0.offset_11 (* main_~i~0_18 4))) 1))) :named ssa_20))
(assert (! (= main_~i~0_21 (+ main_~i~0_18 1)) :named ssa_21))
(assert (! (<= ~N~0_4 main_~i~0_21) :named ssa_22))
(assert (! (= main_~i~0_23 0) :named ssa_23))
(assert (! (and (< main_~i~0_23 ~N~0_4) (= main_~i~0_24 (+ main_~i~0_23 1)) (= v_ArrVal_136_fresh_1 (+ (select (select |#memory_int#3_20| main_~a~0.base_11) (+ (* main_~i~0_23 4) main_~a~0.offset_11)) (select (select |#memory_int#1_11| |main_~#sum~0.base_11|) |main_~#sum~0.offset_11|))) (= v_ArrVal_135_fresh_1 (store (select |#memory_int#1_11| |main_~#sum~0.base_11|) |main_~#sum~0.offset_11| (+ (select (select |#memory_int#3_20| main_~a~0.base_11) (+ (* main_~i~0_23 4) main_~a~0.offset_11)) (select (select |#memory_int#1_11| |main_~#sum~0.base_11|) |main_~#sum~0.offset_11|)))) (= (store |#memory_int#1_11| |main_~#sum~0.base_11| v_ArrVal_135_fresh_1) |#memory_int#1_24|)) :named ssa_24))
(assert (! (and (= v_ArrVal_138_fresh_1 (+ (select (select |#memory_int#3_20| main_~a~0.base_11) (+ (* main_~i~0_24 4) main_~a~0.offset_11)) (select (select |#memory_int#1_24| |main_~#sum~0.base_11|) |main_~#sum~0.offset_11|))) (< main_~i~0_24 ~N~0_4) (= (store |#memory_int#1_24| |main_~#sum~0.base_11| v_ArrVal_137_fresh_1) |#memory_int#1_25|) (= main_~i~0_25 (+ main_~i~0_24 1)) (= v_ArrVal_137_fresh_1 (store (select |#memory_int#1_24| |main_~#sum~0.base_11|) |main_~#sum~0.offset_11| (+ (select (select |#memory_int#3_20| main_~a~0.base_11) (+ (* main_~i~0_24 4) main_~a~0.offset_11)) (select (select |#memory_int#1_24| |main_~#sum~0.base_11|) |main_~#sum~0.offset_11|))))) :named ssa_25))
(assert (! (and (= v_ArrVal_139_fresh_1 (store (select |#memory_int#1_25| |main_~#sum~0.base_11|) |main_~#sum~0.offset_11| (+ (select (select |#memory_int#3_20| main_~a~0.base_11) (+ (* main_~i~0_25 4) main_~a~0.offset_11)) (select (select |#memory_int#1_25| |main_~#sum~0.base_11|) |main_~#sum~0.offset_11|)))) (< main_~i~0_25 ~N~0_4) (= main_~i~0_26 (+ main_~i~0_25 1)) (= v_ArrVal_140_fresh_1 (+ (select (select |#memory_int#3_20| main_~a~0.base_11) (+ (* main_~i~0_25 4) main_~a~0.offset_11)) (select (select |#memory_int#1_25| |main_~#sum~0.base_11|) |main_~#sum~0.offset_11|))) (= (store |#memory_int#1_25| |main_~#sum~0.base_11| v_ArrVal_139_fresh_1) |#memory_int#1_26|)) :named ssa_26))
(assert (! (<= ~N~0_4 main_~i~0_26) :named ssa_27))
(assert (! (= (select (select |#memory_int#1_26| |main_~#sum~0.base_11|) |main_~#sum~0.offset_11|) |main_#t~mem14_28|) :named ssa_28))
(assert (! true :named ssa_29_GlobVarAssigCall))
(assert (! (= |__VERIFIER_assert_#in~cond_29| (ite (= (* 2 ~N~0_4) |main_#t~mem14_28|) 1 0)) :named ssa_29_LocVarAssigCall))
(assert (! true :named ssa_29_OldVarAssigCall))
(assert (! (= __VERIFIER_assert_~cond_30 |__VERIFIER_assert_#in~cond_29|) :named ssa_30))
(assert (! (= __VERIFIER_assert_~cond_30 0) :named ssa_31))
(assert (! true :named ssa_32))
(check-sat)
(get-interpolants (and ssa_0_LocVarAssigCall ssa_precond ssa_0_GlobVarAssigCall ssa_0_OldVarAssigCall ssa_2_return ssa_1) (and ssa_3_OldVarAssigCall ssa_3_LocVarAssigCall ssa_3_GlobVarAssigCall) ssa_4 ssa_5 (and ssa_7 ssa_10_return ssa_8 ssa_9 ssa_6_OldVarAssigCall ssa_6_GlobVarAssigCall ssa_6_LocVarAssigCall) ssa_11 ssa_12 ssa_13 ssa_14 ssa_15 ssa_16 ssa_17 ssa_18 ssa_19 ssa_20 ssa_21 ssa_22 ssa_23 ssa_24 ssa_25 ssa_26 ssa_27 ssa_28 (and ssa_29_OldVarAssigCall ssa_29_GlobVarAssigCall ssa_29_LocVarAssigCall) ssa_30 ssa_31 (and ssa_32 ssa_postcond))
(echo "finished trace check")
(pop 1)
(echo "starting trace check")
(push 1)
(declare-fun |#memory_int#0_-2| () (Array Int (Array Int Int)))
(declare-fun |#valid_-2| () (Array Int Int))
(declare-fun |#length_-2| () (Array Int Int))
(declare-fun ~N~0_-2 () Int)
(declare-fun |#memory_int#2_-2| () (Array Int (Array Int Int)))
(declare-fun |#memory_int#1_-2| () (Array Int (Array Int Int)))
(declare-fun |#memory_int#3_-2| () (Array Int (Array Int Int)))
(declare-fun |old(#memory_int#0)_-2| () (Array Int (Array Int Int)))
(declare-fun |old(#valid)_-2| () (Array Int Int))
(declare-fun |old(#length)_-2| () (Array Int Int))
(declare-fun |old(~N~0)_-2| () Int)
(declare-fun |old(#memory_int#2)_-2| () (Array Int (Array Int Int)))
(declare-fun |old(#memory_int#1)_-2| () (Array Int (Array Int Int)))
(declare-fun |old(#memory_int#3)_-2| () (Array Int (Array Int Int)))
(declare-fun |old(~N~0)_-1| () Int)
(declare-fun ~N~0_-1 () Int)
(declare-fun |#StackHeapBarrier_-1| () Int)
(declare-fun ~N~0_0 () Int)
(assert (! (= ~N~0_-1 |old(~N~0)_-1|) :named ssa_precond))
(assert (! (not true) :named ssa_postcond))
(assert (! (and (= (select |#valid_-2| 2) 1) (= 46 (select (select |#memory_int#2_-2| 2) 5)) (= (select (select |#memory_int#2_-2| 2) 4) 97) (= (select (select |#memory_int#2_-2| 2) 7) 0) (< 0 |#StackHeapBarrier_-1|) (= (select (select |#memory_int#2_-2| 2) 3) 100) (= (select |#length_-2| 2) 8) (= (select |#valid_-2| 0) 0) (= (select |#valid_-2| 1) 1) (= 0 ~N~0_0) (= 110 (select (select |#memory_int#2_-2| 2) 2)) (= (select |#valid_-2| 3) 1) (= 2 (select |#length_-2| 1)) (= (select (select |#memory_int#2_-2| 2) 6) 99) (= 111 (select (select |#memory_int#2_-2| 2) 1)) (= (select (select |#memory_int#0_-2| 1) 1) 0) (= (select (select |#memory_int#2_-2| 2) 0) 99) (= (select (select |#memory_int#0_-2| 1) 0) 48) (= (select |#length_-2| 3) 12)) :named ssa_0))
(assert (! true :named ssa_1_return))
(assert (! true :named ssa_-2_PendingContext))
(assert (! true :named ssa_-2_LocVarAssignPendingContext))
(assert (! (= ~N~0_-2 |old(~N~0)_-1|) :named ssa_-2_OldVarAssignPendingContext))
(check-sat)
(get-interpolants (and ssa_0 ssa_precond) (and ssa_-2_PendingContext ssa_-2_LocVarAssignPendingContext ssa_-2_OldVarAssignPendingContext ssa_1_return ssa_postcond))
(echo "finished trace check")
(pop 1)
(echo "starting trace check")
(push 1)
(declare-fun |#valid_-2| () (Array Int Int))
(declare-fun |#length_-2| () (Array Int Int))
(declare-fun ~N~0_-2 () Int)
(declare-fun |#memory_int#1_-2| () (Array Int (Array Int Int)))
(declare-fun |#memory_int#3_-2| () (Array Int (Array Int Int)))
(declare-fun |old(#valid)_-2| () (Array Int Int))
(declare-fun |old(#length)_-2| () (Array Int Int))
(declare-fun |old(~N~0)_-2| () Int)
(declare-fun |old(#memory_int#1)_-2| () (Array Int (Array Int Int)))
(declare-fun |old(#memory_int#3)_-2| () (Array Int (Array Int Int)))
(declare-fun |assume_abort_if_not_#in~cond_-1| () Int)
(declare-fun assume_abort_if_not_~cond_0 () Int)
(declare-fun assume_abort_if_not_~cond_1 () Int)
(assert (! true :named ssa_precond))
(assert (! (not true) :named ssa_postcond))
(assert (! (= |assume_abort_if_not_#in~cond_-1| assume_abort_if_not_~cond_0) :named ssa_0))
(assert (! (not (= assume_abort_if_not_~cond_0 0)) :named ssa_1))
(assert (! true :named ssa_2))
(assert (! true :named ssa_3_return))
(assert (! true :named ssa_-2_PendingContext))
(assert (! (= |assume_abort_if_not_#in~cond_-1| (ite (<= (mod ~N~0_-2 4294967296) 536870911) 1 0)) :named ssa_-2_LocVarAssignPendingContext))
(assert (! true :named ssa_-2_OldVarAssignPendingContext))
(check-sat)
(get-interpolants (and ssa_0 ssa_precond) ssa_1 ssa_2 (and ssa_-2_PendingContext ssa_3_return ssa_-2_LocVarAssignPendingContext ssa_-2_OldVarAssignPendingContext ssa_postcond))
(echo "finished trace check")
(pop 1)
(exit)
